
Gurobi 9.0.0 (linux64) logging started Mon Feb 10 14:54:57 2020

Academic license - for non-commercial use only

Gurobi 9.0.0 (linux64) logging started Mon Feb 10 14:55:05 2020

Academic license - for non-commercial use only

Gurobi 9.0.0 (linux64) logging started Mon Feb 10 15:04:14 2020

Academic license - for non-commercial use only

Gurobi 9.0.0 (linux64) logging started Mon Feb 10 15:05:45 2020

Academic license - for non-commercial use only

Gurobi 9.0.0 (linux64) logging started Mon Feb 10 16:07:14 2020

Academic license - for non-commercial use only

Gurobi 9.0.0 (linux64) logging started Mon Feb 10 16:07:49 2020

Academic license - for non-commercial use only

Gurobi 9.0.0 (linux64) logging started Mon Feb 10 16:08:36 2020

Academic license - for non-commercial use only

Gurobi 9.0.0 (linux64) logging started Mon Feb 10 16:09:22 2020

Academic license - for non-commercial use only

Gurobi 9.0.0 (linux64) logging started Tue Feb 11 14:12:11 2020

Academic license - for non-commercial use only

Gurobi 9.0.0 (linux64) logging started Tue Feb 11 14:12:32 2020

Academic license - for non-commercial use only

Gurobi 9.0.0 (linux64) logging started Tue Feb 11 14:12:54 2020

Academic license - for non-commercial use only

Gurobi 9.0.0 (linux64) logging started Tue Feb 11 14:47:59 2020

Academic license - for non-commercial use only

Gurobi 9.0.0 (linux64) logging started Tue Feb 11 14:48:18 2020

Academic license - for non-commercial use only

Gurobi 9.0.0 (linux64) logging started Tue Feb 11 14:48:30 2020

Academic license - for non-commercial use only

Gurobi 9.0.0 (linux64) logging started Tue Feb 11 14:53:01 2020

Academic license - for non-commercial use only

Gurobi 9.0.0 (linux64) logging started Tue Feb 11 14:55:37 2020

Academic license - for non-commercial use only

Gurobi 9.0.0 (linux64) logging started Tue Feb 11 14:58:05 2020

Academic license - for non-commercial use only

Gurobi 9.0.0 (linux64) logging started Tue Feb 11 15:03:55 2020

Academic license - for non-commercial use only

Gurobi 9.0.0 (linux64) logging started Tue Feb 11 15:11:17 2020

Academic license - for non-commercial use only

Gurobi 9.0.0 (linux64) logging started Tue Feb 11 15:14:28 2020

Academic license - for non-commercial use only

Gurobi 9.0.0 (linux64) logging started Tue Feb 11 15:15:00 2020

Academic license - for non-commercial use only

Gurobi 9.0.0 (linux64) logging started Tue Feb 11 15:15:16 2020

Academic license - for non-commercial use only

Gurobi 9.0.0 (linux64) logging started Tue Feb 11 15:15:41 2020

Academic license - for non-commercial use only

Gurobi 9.0.0 (linux64) logging started Tue Feb 11 15:19:29 2020

Academic license - for non-commercial use only

Gurobi 9.0.0 (linux64) logging started Tue Feb 11 15:29:53 2020

Academic license - for non-commercial use only

Gurobi 9.0.0 (linux64) logging started Tue Feb 11 16:41:28 2020

Academic license - for non-commercial use only

Gurobi 9.0.0 (linux64) logging started Tue Feb 11 17:50:25 2020

Academic license - for non-commercial use only

Gurobi 9.0.0 (linux64) logging started Tue Feb 11 17:52:47 2020

Academic license - for non-commercial use only

Gurobi 9.0.0 (linux64) logging started Tue Feb 11 17:53:47 2020

Academic license - for non-commercial use only

Gurobi 9.0.0 (linux64) logging started Tue Feb 11 17:54:06 2020

Academic license - for non-commercial use only

Gurobi 9.0.0 (linux64) logging started Tue Feb 11 18:01:06 2020

Academic license - for non-commercial use only
